Test: chnl11_13.cnf
Options: -print-activity -no-inverting-opt -activity-nl-freq=1
WARNING: for repeatability, setting FPU to use double precision
============================[ Problem Statistics ]=============================
|                                                                             |
|  Number of symmetries:           45                                         |
|  Number of invertingSyms:         0                                         |
|  Number of variables:           286                                         |
|  Number of clauses:            1742                                         |
|  Parse time:                   0.00 s                                       |
|                                                                             |
============================[ Search Statistics ]==============================
| Conflicts |          ORIGINAL         |          LEARNT          | Progress |
|           |    Vars  Clauses Literals |    Limit  Clauses Lit/Cl |          |
===============================================================================
ActiveSyms: 45
ActiveSyms: 42
ActiveSyms: 42
ActiveSyms: 42
ActiveSyms: 42
ActiveSyms: 42
ActiveSyms: 40
ActiveSyms: 40
ActiveSyms: 40
ActiveSyms: 40
ActiveSyms: 40
ActiveSyms: 40
ActiveSyms: 40
ActiveSyms: 40
ActiveSyms: 40
ActiveSyms: 40
ActiveSyms: 38
ActiveSyms: 38
ActiveSyms: 38
ActiveSyms: 38
ActiveSyms: 38
ActiveSyms: 38
ActiveSyms: 38
ActiveSyms: 38
ActiveSyms: 38
ActiveSyms: 36
ActiveSyms: 36
ActiveSyms: 36
ActiveSyms: 36
ActiveSyms: 36
ActiveSyms: 36
ActiveSyms: 36
ActiveSyms: 36
ActiveSyms: 34
ActiveSyms: 34
ActiveSyms: 34
ActiveSyms: 34
ActiveSyms: 34
ActiveSyms: 34
ActiveSyms: 34
ActiveSyms: 32
ActiveSyms: 32
ActiveSyms: 32
ActiveSyms: 32
ActiveSyms: 32
ActiveSyms: 32
ActiveSyms: 30
ActiveSyms: 30
ActiveSyms: 30
ActiveSyms: 30
ActiveSyms: 30
ActiveSyms: 28
ActiveSyms: 28
ActiveSyms: 28
ActiveSyms: 28
ActiveSyms: 26
ActiveSyms: 26
ActiveSyms: 26
ActiveSyms: 24
ActiveSyms: 24
ActiveSyms: 24
ActiveSyms: 22
ActiveSyms: 24
ActiveSyms: 24
ActiveSyms: 26
ActiveSyms: 28
ActiveSyms: 30
ActiveSyms: 32
ActiveSyms: 34
ActiveSyms: 36
ActiveSyms: 38
ActiveSyms: 40
ActiveSyms: 45
===============================================================================
restarts              : 1
conflicts             : 12             (3000 /sec)
symconflicts          : 9              (2250 /sec)
decisions             : 61             (0.00 % random) (15250 /sec)
propagations          : 320            (80000 /sec)
sympropagations       : 66             (16500 /sec)
conflict literals     : 306            (0.00 % deleted)
literals     : 306            (0.00 % deleted)

HEURISTIC USAGES
random                : 0           
activity w/ lookahead : 0           
activity no lookahead : 61          
original sp           : 0           
sym count             : 0           

Memory used           : 5.00 MB
CPU time              : 0.004 s

UNSATISFIABLE
